
Gurobi 7.0.1 (win64) logging started 04/03/17 15:05:54

Changed value of parameter LogFile to outputlogs\log_LPIP_prov_code_7_8_9_1491246354.log
   Prev: gurobi.log  Default: 
Optimize a model with 5920 rows, 297621 columns and 595676 nonzeros
Variable types: 0 continuous, 297621 integer (297621 binary)
Coefficient statistics:
  Matrix range     [1e+00, 3e+03]
  Objective range  [6e+00, 2e+07]
  Bounds range     [1e+00, 1e+00]
  RHS range        [1e+00, 3e+01]
Presolve removed 193 rows and 0 columns
Presolve time: 0.83s
Presolved: 5727 rows, 297621 columns, 595483 nonzeros
Variable types: 0 continuous, 297621 integer (297621 binary)

Root simplex log...

Iteration    Objective       Primal Inf.    Dual Inf.      Time
       0    0.0000000e+00   5.050000e+03   0.000000e+00     88s
    5160    4.9224857e+07   0.000000e+00   0.000000e+00     88s

Root relaxation: objective 4.922486e+07, 5160 iterations, 0.11 seconds

    Nodes    |    Current Node    |     Objective Bounds      |     Work
 Expl Unexpl |  Obj  Depth IntInf | Incumbent    BestBd   Gap | It/Node Time

     0     0 4.9225e+07    0   31          - 4.9225e+07      -     -   88s
     0     0 4.9225e+07    0   31          - 4.9225e+07      -     -  110s
     0     0 4.9225e+07    0   31          - 4.9225e+07      -     -  132s
     0     0 4.9225e+07    0   31          - 4.9225e+07      -     -  154s
     0     0 4.9225e+07    0   31          - 4.9225e+07      -     -  180s
     0     0 4.9225e+07    0   31          - 4.9225e+07      -     -  207s
     0     0 4.9225e+07    0   31          - 4.9225e+07      -     -  231s
     0     0 4.9225e+07    0   31          - 4.9225e+07      -     -  255s
     0     0 4.9225e+07    0   31          - 4.9225e+07      -     -  279s
H    0     0                    1.345336e+08 4.9225e+07  63.4%     -  304s
     0     0 4.9225e+07    0   31 1.3453e+08 4.9225e+07  63.4%     -  326s
     0     0 4.9225e+07    0   31 1.3453e+08 4.9225e+07  63.4%     -  348s
     0     0 4.9225e+07    0   31 1.3453e+08 4.9225e+07  63.4%     -  369s
     0     0 4.9225e+07    0   31 1.3453e+08 4.9225e+07  63.4%     -  391s
     0     0 4.9225e+07    0   31 1.3453e+08 4.9225e+07  63.4%     -  412s
     0     0 4.9888e+07    0  149 1.3453e+08 4.9888e+07  62.9%     -  413s
     0     0 4.9888e+07    0  149 1.3453e+08 4.9888e+07  62.9%     -  435s
     0     0 4.9888e+07    0  149 1.3453e+08 4.9888e+07  62.9%     -  458s
     0     0 4.9888e+07    0  149 1.3453e+08 4.9888e+07  62.9%     -  480s
H    0     0                    5.085455e+07 4.9888e+07  1.90%     -  501s
     0     0 5.0032e+07    0  482 5.0855e+07 5.0032e+07  1.62%     -  502s
     0     0 5.0294e+07    0 1210 5.0855e+07 5.0294e+07  1.10%     -  511s
     0     0 5.0319e+07    0 1024 5.0855e+07 5.0319e+07  1.05%     -  513s
     0     0 5.0449e+07    0 1044 5.0855e+07 5.0449e+07  0.80%     -  515s
     0     0 5.0454e+07    0 1011 5.0855e+07 5.0454e+07  0.79%     -  516s
     0     0 5.0496e+07    0  258 5.0855e+07 5.0496e+07  0.71%     -  516s
     0     0 5.0497e+07    0  270 5.0855e+07 5.0497e+07  0.70%     -  517s
     0     0 5.0520e+07    0  299 5.0855e+07 5.0520e+07  0.66%     -  518s
     0     0 5.0520e+07    0  293 5.0855e+07 5.0520e+07  0.66%     -  523s
     0     0 5.0520e+07    0  293 5.0855e+07 5.0520e+07  0.66%     -  547s
     0     0 5.0520e+07    0  293 5.0855e+07 5.0520e+07  0.66%     -  571s
     0     0 5.0520e+07    0  293 5.0855e+07 5.0520e+07  0.66%     -  595s
     0     0 5.0520e+07    0  293 5.0855e+07 5.0520e+07  0.66%     -  619s
     0     0 5.0520e+07    0  293 5.0855e+07 5.0520e+07  0.66%     -  643s
     0     0 5.0520e+07    0  226 5.0855e+07 5.0520e+07  0.66%     -  665s
     0     0 5.0520e+07    0  226 5.0855e+07 5.0520e+07  0.66%     -  690s
     0     0 5.0520e+07    0  226 5.0855e+07 5.0520e+07  0.66%     -  714s
     0     0 5.0520e+07    0  226 5.0855e+07 5.0520e+07  0.66%     -  737s
     0     0 5.0520e+07    0  226 5.0855e+07 5.0520e+07  0.66%     -  760s
     0     0 5.0520e+07    0  226 5.0855e+07 5.0520e+07  0.66%     -  785s
     0     0 5.0520e+07    0  434 5.0855e+07 5.0520e+07  0.66%     -  788s
     0     0 5.0520e+07    0  434 5.0855e+07 5.0520e+07  0.66%     -  812s
H    0     0                    5.064354e+07 5.0520e+07  0.24%     -  836s
     0     0 5.0520e+07    0  232 5.0644e+07 5.0520e+07  0.24%     -  836s
     0     0 5.0522e+07    0  268 5.0644e+07 5.0522e+07  0.24%     -  839s
     0     0 5.0529e+07    0  462 5.0644e+07 5.0529e+07  0.23%     -  842s
     0     0 5.0539e+07    0  753 5.0644e+07 5.0539e+07  0.21%     -  846s
     0     0 5.0540e+07    0  750 5.0644e+07 5.0540e+07  0.21%     -  847s
     0     0 5.0542e+07    0  749 5.0644e+07 5.0542e+07  0.20%     -  858s
     0     0 5.0542e+07    0  751 5.0644e+07 5.0542e+07  0.20%     -  859s
     0     0 5.0544e+07    0  770 5.0644e+07 5.0544e+07  0.20%     -  869s
     0     0 5.0544e+07    0  771 5.0644e+07 5.0544e+07  0.20%     -  871s
     0     0 5.0544e+07    0  349 5.0644e+07 5.0544e+07  0.20%     -  883s
     0     0 5.0544e+07    0  225 5.0644e+07 5.0544e+07  0.20%     -  897s
     0     0 5.0544e+07    0  225 5.0644e+07 5.0544e+07  0.20%     -  921s
     0     0 5.0544e+07    0  225 5.0644e+07 5.0544e+07  0.20%     -  945s
     0     0 5.0544e+07    0  225 5.0644e+07 5.0544e+07  0.20%     -  968s
     0     0 5.0544e+07    0  225 5.0644e+07 5.0544e+07  0.20%     -  991s
     0     0 5.0544e+07    0  225 5.0644e+07 5.0544e+07  0.20%     - 1015s
     0     0 5.0544e+07    0  125 5.0644e+07 5.0544e+07  0.20%     - 1016s
     0     0 5.0544e+07    0  133 5.0644e+07 5.0544e+07  0.20%     - 1018s
     0     0 5.0544e+07    0  333 5.0644e+07 5.0544e+07  0.20%     - 1019s
     0     0 5.0544e+07    0  325 5.0644e+07 5.0544e+07  0.20%     - 1020s
     0     0 5.0544e+07    0  340 5.0644e+07 5.0544e+07  0.20%     - 1021s
     0     0 5.0544e+07    0  339 5.0644e+07 5.0544e+07  0.20%     - 1023s
     0     0 5.0544e+07    0  464 5.0644e+07 5.0544e+07  0.20%     - 1025s
     0     0 5.0544e+07    0  503 5.0644e+07 5.0544e+07  0.20%     - 1027s
     0     0 5.0544e+07    0  512 5.0644e+07 5.0544e+07  0.20%     - 1029s
     0     0 5.0544e+07    0  514 5.0644e+07 5.0544e+07  0.20%     - 1030s
     0     0 5.0544e+07    0  515 5.0644e+07 5.0544e+07  0.20%     - 1033s
     0     0 5.0544e+07    0  515 5.0644e+07 5.0544e+07  0.20%     - 1056s
     0     0 5.0544e+07    0  515 5.0644e+07 5.0544e+07  0.20%     - 1080s
     0     0 5.0544e+07    0  515 5.0644e+07 5.0544e+07  0.20%     - 1104s
     0     0 5.0544e+07    0  515 5.0644e+07 5.0544e+07  0.20%     - 1127s
     0     0 5.0544e+07    0  515 5.0644e+07 5.0544e+07  0.20%     - 1151s
     0     0 5.0544e+07    0  597 5.0644e+07 5.0544e+07  0.20%     - 1152s
     0     0 5.0544e+07    0  604 5.0644e+07 5.0544e+07  0.20%     - 1156s
     0     0 5.0544e+07    0  608 5.0644e+07 5.0544e+07  0.20%     - 1157s
     0     0 5.0544e+07    0  621 5.0644e+07 5.0544e+07  0.20%     - 1161s
     0     0 5.0544e+07    0  625 5.0644e+07 5.0544e+07  0.20%     - 1162s
     0     0 5.0545e+07    0  617 5.0644e+07 5.0545e+07  0.20%     - 1166s
     0     0 5.0545e+07    0  620 5.0644e+07 5.0545e+07  0.20%     - 1167s
     0     0 5.0545e+07    0  626 5.0644e+07 5.0545e+07  0.19%     - 1172s
     0     0 5.0545e+07    0  629 5.0644e+07 5.0545e+07  0.19%     - 1173s
     0     0 5.0545e+07    0  633 5.0644e+07 5.0545e+07  0.19%     - 1177s
     0     0 5.0545e+07    0  637 5.0644e+07 5.0545e+07  0.19%     - 1177s
     0     0 5.0545e+07    0  644 5.0644e+07 5.0545e+07  0.19%     - 1179s
     0     0 5.0545e+07    0  640 5.0644e+07 5.0545e+07  0.19%     - 1179s
     0     0 5.0546e+07    0  646 5.0644e+07 5.0546e+07  0.19%     - 1180s
     0     0 5.0546e+07    0  650 5.0644e+07 5.0546e+07  0.19%     - 1181s
     0     0 5.0546e+07    0  650 5.0644e+07 5.0546e+07  0.19%     - 1182s
     0     0 5.0547e+07    0  642 5.0644e+07 5.0547e+07  0.19%     - 1184s
     0     0 5.0548e+07    0  407 5.0644e+07 5.0548e+07  0.19%     - 1189s
     0     0 5.0548e+07    0  409 5.0644e+07 5.0548e+07  0.19%     - 1191s
     0     0 5.0549e+07    0  398 5.0644e+07 5.0549e+07  0.19%     - 1192s
     0     0 5.0549e+07    0  398 5.0644e+07 5.0549e+07  0.19%     - 1192s
     0     0 5.0549e+07    0  398 5.0644e+07 5.0549e+07  0.19%     - 1194s
     0     0 5.0549e+07    0  404 5.0644e+07 5.0549e+07  0.19%     - 1194s
     0     0 5.0549e+07    0  413 5.0644e+07 5.0549e+07  0.19%     - 1195s
     0     0 5.0549e+07    0  415 5.0644e+07 5.0549e+07  0.19%     - 1197s
     0     0 5.0550e+07    0  415 5.0644e+07 5.0550e+07  0.19%     - 1198s
     0     0 5.0550e+07    0  419 5.0644e+07 5.0550e+07  0.19%     - 1198s
     0     0 5.0550e+07    0  417 5.0644e+07 5.0550e+07  0.18%     - 1199s
     0     0 5.0550e+07    0  421 5.0644e+07 5.0550e+07  0.18%     - 1200s
     0     0 5.0550e+07    0  427 5.0644e+07 5.0550e+07  0.18%     - 1201s
     0     0 5.0550e+07    0  428 5.0644e+07 5.0550e+07  0.18%     - 1202s
     0     0 5.0550e+07    0  424 5.0644e+07 5.0550e+07  0.18%     - 1203s
     0     0 5.0550e+07    0  425 5.0644e+07 5.0550e+07  0.18%     - 1204s
     0     0 5.0551e+07    0  580 5.0644e+07 5.0551e+07  0.18%     - 1205s
     0     0 5.0551e+07    0  586 5.0644e+07 5.0551e+07  0.18%     - 1205s
     0     0 5.0551e+07    0  581 5.0644e+07 5.0551e+07  0.18%     - 1207s
     0     0 5.0551e+07    0  581 5.0644e+07 5.0551e+07  0.18%     - 1239s
     0     0 5.0551e+07    0  581 5.0644e+07 5.0551e+07  0.18%     - 1267s
     0     0 5.0551e+07    0  581 5.0644e+07 5.0551e+07  0.18%     - 1290s
     0     0 5.0551e+07    0  581 5.0644e+07 5.0551e+07  0.18%     - 1314s
     0     0 5.0551e+07    0  581 5.0644e+07 5.0551e+07  0.18%     - 1338s
     0     0 5.0551e+07    0  581 5.0644e+07 5.0551e+07  0.18%     - 1361s
     0     0 5.0551e+07    0  581 5.0644e+07 5.0551e+07  0.18%     - 1384s
H    0     0                    5.063534e+07 5.0551e+07  0.17%     - 1407s
     0     0 5.0551e+07    0  225 5.0635e+07 5.0551e+07  0.17%     - 1423s
     0     0 5.0551e+07    0  225 5.0635e+07 5.0551e+07  0.17%     - 1447s
     0     0 5.0551e+07    0  225 5.0635e+07 5.0551e+07  0.17%     - 1470s
     0     0 5.0551e+07    0  225 5.0635e+07 5.0551e+07  0.17%     - 1497s
     0     0 5.0551e+07    0  225 5.0635e+07 5.0551e+07  0.17%     - 1522s
     0     0 5.0551e+07    0  225 5.0635e+07 5.0551e+07  0.17%     - 1549s
     0     0 5.0551e+07    0  127 5.0635e+07 5.0551e+07  0.17%     - 1550s
     0     0 5.0551e+07    0  127 5.0635e+07 5.0551e+07  0.17%     - 1576s
     0     0 5.0551e+07    0  127 5.0635e+07 5.0551e+07  0.17%     - 1600s
     0     0 5.0551e+07    0  127 5.0635e+07 5.0551e+07  0.17%     - 1624s
     0     0 5.0551e+07    0  127 5.0635e+07 5.0551e+07  0.17%     - 1647s
     0     0 5.0551e+07    0  127 5.0635e+07 5.0551e+07  0.17%     - 1670s
     0     0 5.0551e+07    0  141 5.0635e+07 5.0551e+07  0.17%     - 1671s
     0     0 5.0551e+07    0  309 5.0635e+07 5.0551e+07  0.17%     - 1672s
     0     0 5.0551e+07    0  313 5.0635e+07 5.0551e+07  0.17%     - 1673s
     0     0 5.0551e+07    0  311 5.0635e+07 5.0551e+07  0.17%     - 1675s
     0     0 5.0551e+07    0  319 5.0635e+07 5.0551e+07  0.17%     - 1676s
     0     0 5.0551e+07    0  331 5.0635e+07 5.0551e+07  0.17%     - 1677s
     0     0 5.0551e+07    0  335 5.0635e+07 5.0551e+07  0.17%     - 1678s
     0     0 5.0551e+07    0  430 5.0635e+07 5.0551e+07  0.17%     - 1680s
     0     0 5.0551e+07    0  433 5.0635e+07 5.0551e+07  0.17%     - 1681s
     0     0 5.0551e+07    0  431 5.0635e+07 5.0551e+07  0.17%     - 1682s
     0     0 5.0551e+07    0  432 5.0635e+07 5.0551e+07  0.17%     - 1684s
     0     0 5.0551e+07    0  461 5.0635e+07 5.0551e+07  0.17%     - 1685s
     0     0 5.0551e+07    0  465 5.0635e+07 5.0551e+07  0.17%     - 1686s
     0     0 5.0551e+07    0  472 5.0635e+07 5.0551e+07  0.17%     - 1687s
     0     0 5.0551e+07    0  628 5.0635e+07 5.0551e+07  0.17%     - 1689s
     0     0 5.0551e+07    0  643 5.0635e+07 5.0551e+07  0.17%     - 1691s
     0     0 5.0551e+07    0  650 5.0635e+07 5.0551e+07  0.17%     - 1692s
     0     0 5.0551e+07    0  656 5.0635e+07 5.0551e+07  0.17%     - 1695s
     0     0 5.0551e+07    0  663 5.0635e+07 5.0551e+07  0.17%     - 1696s
     0     0 5.0551e+07    0  655 5.0635e+07 5.0551e+07  0.17%     - 1699s
     0     0 5.0551e+07    0  655 5.0635e+07 5.0551e+07  0.17%     - 1723s
     0     0 5.0551e+07    0  655 5.0635e+07 5.0551e+07  0.17%     - 1747s
     0     0 5.0551e+07    0  655 5.0635e+07 5.0551e+07  0.17%     - 1770s
     0     0 5.0551e+07    0  655 5.0635e+07 5.0551e+07  0.17%     - 1794s
     0     0 5.0551e+07    0  655 5.0635e+07 5.0551e+07  0.17%     - 1818s
     0     0 5.0551e+07    0  643 5.0635e+07 5.0551e+07  0.17%     - 1818s
     0     0 5.0551e+07    0  653 5.0635e+07 5.0551e+07  0.17%     - 1821s
     0     0 5.0551e+07    0  647 5.0635e+07 5.0551e+07  0.17%     - 1822s
     0     0 5.0551e+07    0  657 5.0635e+07 5.0551e+07  0.17%     - 1824s
     0     0 5.0551e+07    0  651 5.0635e+07 5.0551e+07  0.17%     - 1825s
     0     0 5.0551e+07    0  569 5.0635e+07 5.0551e+07  0.17%     - 1829s
     0     0 5.0551e+07    0  557 5.0635e+07 5.0551e+07  0.17%     - 1830s
     0     0 5.0551e+07    0  558 5.0635e+07 5.0551e+07  0.17%     - 1832s
     0     0 5.0551e+07    0  558 5.0635e+07 5.0551e+07  0.17%     - 1833s
     0     0 5.0551e+07    0  572 5.0635e+07 5.0551e+07  0.17%     - 1835s
     0     0 5.0551e+07    0  579 5.0635e+07 5.0551e+07  0.17%     - 1836s
     0     0 5.0551e+07    0  420 5.0635e+07 5.0551e+07  0.17%     - 1838s
     0     0 5.0551e+07    0  587 5.0635e+07 5.0551e+07  0.17%     - 1839s
     0     0 5.0551e+07    0  572 5.0635e+07 5.0551e+07  0.17%     - 1841s
     0     0 5.0551e+07    0  574 5.0635e+07 5.0551e+07  0.17%     - 1842s
     0     0 5.0551e+07    0  571 5.0635e+07 5.0551e+07  0.17%     - 1845s
     0     0 5.0551e+07    0  577 5.0635e+07 5.0551e+07  0.17%     - 1845s
     0     0 5.0551e+07    0  584 5.0635e+07 5.0551e+07  0.17%     - 1848s
     0     0 5.0551e+07    0  579 5.0635e+07 5.0551e+07  0.17%     - 1848s
     0     0 5.0551e+07    0  579 5.0635e+07 5.0551e+07  0.17%     - 1851s
     0     0 5.0551e+07    0  579 5.0635e+07 5.0551e+07  0.17%     - 1880s
H    0     0                    5.062743e+07 5.0551e+07  0.15%     - 1907s
     0     2 5.0551e+07    0  579 5.0627e+07 5.0551e+07  0.15%     - 1909s
     1     4 5.0573e+07    1  537 5.0627e+07 5.0551e+07  0.15%   981 1912s
     3     6 5.0574e+07    2  527 5.0627e+07 5.0554e+07  0.14%   537 1915s
     9     7 5.0612e+07    4   14 5.0627e+07 5.0554e+07  0.14%   423 1942s
    14    11 5.0613e+07    5   14 5.0627e+07 5.0554e+07  0.14%   295 1945s
    28    23 5.0613e+07   12   14 5.0627e+07 5.0554e+07  0.14%   150 1975s
    60    54 5.0614e+07   27   14 5.0627e+07 5.0554e+07  0.14%  74.1 2005s
    90    86 5.0614e+07   42   14 5.0627e+07 5.0554e+07  0.14%  50.3 2044s
   106   102 5.0614e+07   52   14 5.0627e+07 5.0554e+07  0.14%  44.3 2045s
   117   111 5.0614e+07   55   14 5.0627e+07 5.0554e+07  0.14%  40.5 2078s
   126   119 5.0614e+07   57   14 5.0627e+07 5.0554e+07  0.14%  37.8 2080s
   146   141 5.0614e+07   67   14 5.0627e+07 5.0554e+07  0.14%  33.0 2111s
H  174   162                    5.061579e+07 5.0554e+07  0.12%  28.3 2140s
H  179    91                    5.059634e+07 5.0554e+07  0.08%  27.6 2168s
   187    92     cutoff    3      5.0596e+07 5.0573e+07  0.05%  33.1 2170s
   210   108     cutoff    4      5.0596e+07 5.0592e+07  0.01%  43.3 2199s

Cutting planes:
  Gomory: 12
  Cover: 5
  MIR: 74
  StrongCG: 1
  Zero half: 15
  Lazy constraints: 1764

Explored 221 nodes (121011 simplex iterations) in 2199.92 seconds
Thread count was 4 (of 4 available processors)

Solution count 7: 5.05963e+07 5.06158e+07 5.06274e+07 ... 1.34534e+08
Pool objective bound 5.05918e+07

Optimal solution found (tolerance 1.00e-04)
Best objective 5.059634183966e+07, best bound 5.059183225173e+07, gap 0.0089%
